(set-logic QF_S)
(declare-fun T3_2 () String)
(declare-fun T0_7 () String)
(declare-fun T4_2 () String)
(declare-fun T0_2 () String)
(declare-fun T2_2 () String)
(declare-fun T3_5 () String)
(declare-fun var_0xINPUT_8 () String)
(declare-fun T2_5 () String)
(declare-fun T1_5 () String)
(declare-fun T5_2 () String)
(declare-fun T1_7 () String)
(declare-fun PCTEMP_LHS_2 () String)
(declare-fun T1_2 () String)
(assert (and (= var_0xINPUT_8 (concat T0_2 T1_2)) (= (len T0_2) 0) (= T1_2 (concat T2_2 T3_2)) (= T2_2 (concat T4_2 T5_2)) (= T5_2 "=") (not (in T4_2 /=/)) (= var_0xINPUT_8 (concat T1_5 T2_5)) (= T2_5 (concat PCTEMP_LHS_2 T3_5)) (= PCTEMP_LHS_2 (concat T0_7 T1_7)) (= (len T0_7) 0) (not (in T1_7 /X/)) (not (= PCTEMP_LHS_2 "onmouseover")) (= PCTEMP_LHS_2 "onmouseover")))
(check-sat var_0xINPUT_8)
